Route 1: 0 86 83 11 76 22 27 50 6 19 61 49 91 0
Route 2: 0 28 54 53 26 100 25 21 4 73 0
Route 3: 0 31 39 92 81 47 44 89 88 0
Route 4: 0 1 42 29 40 96 24 74 79 99 18 0
Route 5: 0 8 98 56 97 71 12 69 70 0
Route 6: 0 64 14 62 60 9 57 33 0
Route 7: 0 48 52 34 3 35 65 78 10 63 0
Route 8: 0 13 7 43 32 82 45 38 90 0
Route 9: 0 93 75 84 66 59 85 51 0
Route 10: 0 41 68 72 95 55 2 16 77 80 17 87 94 0
Route 11: 0 5 46 36 67 37 20 0
Route 12: 0 30 23 15 58 0
